1
100
85
1 2
2 1
3 1
4 1
5 2
6 2
7 1
9 1
10 5
11 2
12 2
13 1
14 2
15 5
16 3
17 4
18 3
19 3
20 1
21 2
23 5
24 1
25 3
26 2
27 2
28 2
29 3
30 2
31 1
32 1
33 1
35 3
37 2
38 1
39 1
40 1
41 4
42 3
43 1
44 5
45 1
46 2
47 2
49 1
51 4
52 4
54 8
55 1
57 1
58 3
59 2
60 3
61 2
63 1
64 1
65 4
66 4
67 4
68 1
69 3
70 2
71 3
72 1
74 4
75 2
76 2
77 4
78 3
80 1
82 2
83 3
85 2
86 1
87 2
89 1
90 3
91 3
92 4
94 1
95 2
96 4
97 5
98 2
99 2
100 1
